p edge 150 2235
e 1 3
e 1 6
e 1 9
e 1 11
e 1 15
e 1 23
e 1 27
e 1 29
e 1 30
e 1 33
e 1 46
e 1 63
e 1 65
e 1 69
e 1 71
e 1 81
e 1 85
e 1 91
e 1 94
e 1 98
e 1 100
e 1 104
e 1 113
e 1 115
e 1 121
e 1 125
e 1 126
e 1 127
e 1 128
e 1 132
e 1 141
e 1 148
e 1 150
e 2 3
e 2 8
e 2 9
e 2 13
e 2 19
e 2 26
e 2 27
e 2 38
e 2 43
e 2 49
e 2 50
e 2 56
e 2 58
e 2 63
e 2 68
e 2 70
e 2 74
e 2 79
e 2 84
e 2 87
e 2 91
e 2 100
e 2 104
e 2 108
e 2 112
e 2 114
e 2 117
e 2 132
e 2 137
e 2 147
e 3 11
e 3 12
e 3 14
e 3 17
e 3 25
e 3 27
e 3 29
e 3 30
e 3 35
e 3 36
e 3 47
e 3 54
e 3 61
e 3 65
e 3 66
e 3 69
e 3 70
e 3 74
e 3 78
e 3 81
e 3 82
e 3 84
e 3 98
e 3 107
e 3 109
e 3 111
e 3 113
e 3 115
e 3 131
e 3 133
e 3 142
e 3 143
e 3 146
e 3 147
e 4 5
e 4 19
e 4 23
e 4 24
e 4 25
e 4 39
e 4 42
e 4 44
e 4 48
e 4 52
e 4 57
e 4 66
e 4 67
e 4 69
e 4 70
e 4 73
e 4 77
e 4 78
e 4 85
e 4 89
e 4 90
e 4 98
e 4 100
e 4 103
e 4 107
e 4 117
e 4 131
e 4 139
e 4 141
e 4 142
e 4 143
e 4 145
e 4 147
e 4 149
e 5 11
e 5 13
e 5 14
e 5 17
e 5 27
e 5 33
e 5 35
e 5 43
e 5 45
e 5 51
e 5 59
e 5 60
e 5 66
e 5 72
e 5 79
e 5 80
e 5 83
e 5 86
e 5 87
e 5 90
e 5 93
e 5 102
e 5 103
e 5 109
e 5 113
e 5 116
e 5 123
e 5 131
e 5 137
e 5 138
e 6 7
e 6 14
e 6 15
e 6 20
e 6 23
e 6 38
e 6 59
e 6 61
e 6 62
e 6 63
e 6 67
e 6 69
e 6 70
e 6 74
e 6 77
e 6 81
e 6 90
e 6 91
e 6 94
e 6 100
e 6 101
e 6 108
e 6 112
e 6 113
e 6 117
e 6 128
e 7 13
e 7 25
e 7 26
e 7 35
e 7 36
e 7 38
e 7 39
e 7 43
e 7 44
e 7 63
e 7 74
e 7 78
e 7 79
e 7 87
e 7 91
e 7 93
e 7 95
e 7 97
e 7 98
e 7 101
e 7 106
e 7 110
e 7 114
e 7 115
e 7 121
e 7 125
e 7 129
e 7 134
e 7 135
e 7 144
e 7 145
e 8 9
e 8 16
e 8 20
e 8 26
e 8 28
e 8 42
e 8 47
e 8 49
e 8 53
e 8 60
e 8 61
e 8 69
e 8 71
e 8 80
e 8 83
e 8 90
e 8 94
e 8 100
e 8 107
e 8 111
e 8 122
e 8 126
e 8 127
e 8 133
e 8 145
e 8 147
e 8 148
e 9 12
e 9 17
e 9 18
e 9 22
e 9 25
e 9 28
e 9 38
e 9 41
e 9 43
e 9 44
e 9 57
e 9 60
e 9 61
e 9 62
e 9 63
e 9 71
e 9 85
e 9 87
e 9 93
e 9 99
e 9 101
e 9 106
e 9 113
e 9 115
e 9 119
e 9 125
e 9 131
e 9 132
e 9 137
e 9 138
e 9 139
e 9 143
e 9 144
e 9 146
e 9 147
e 9 148
e 10 16
e 10 18
e 10 23
e 10 24
e 10 25
e 10 26
e 10 32
e 10 33
e 10 34
e 10 46
e 10 54
e 10 58
e 10 61
e 10 64
e 10 66
e 10 67
e 10 69
e 10 79
e 10 82
e 10 84
e 10 85
e 10 95
e 10 96
e 10 101
e 10 106
e 10 119
e 10 120
e 10 121
e 10 124
e 10 132
e 10 135
e 10 138
e 10 142
e 10 143
e 10 148
e 11 14
e 11 15
e 11 19
e 11 36
e 11 41
e 11 42
e 11 56
e 11 58
e 11 63
e 11 84
e 11 91
e 11 94
e 11 101
e 11 105
e 11 111
e 11 113
e 11 116
e 11 118
e 11 119
e 11 126
e 11 127
e 11 128
e 11 131
e 12 32
e 12 41
e 12 52
e 12 53
e 12 67
e 12 68
e 12 70
e 12 75
e 12 76
e 12 83
e 12 85
e 12 87
e 12 89
e 12 96
e 12 111
e 12 123
e 12 127
e 12 136
e 12 138
e 12 144
e 13 14
e 13 16
e 13 19
e 13 22
e 13 27
e 13 32
e 13 33
e 13 37
e 13 51
e 13 59
e 13 60
e 13 69
e 13 71
e 13 78
e 13 81
e 13 83
e 13 101
e 13 105
e 13 106
e 13 112
e 13 113
e 13 116
e 13 118
e 13 122
e 13 127
e 13 130
e 13 137
e 13 143
e 13 147
e 14 15
e 14 19
e 14 23
e 14 24
e 14 31
e 14 33
e 14 35
e 14 36
e 14 49
e 14 50
e 14 58
e 14 66
e 14 82
e 14 84
e 14 86
e 14 88
e 14 92
e 14 93
e 14 97
e 14 98
e 14 102
e 14 105
e 14 107
e 14 108
e 14 110
e 14 111
e 14 115
e 14 127
e 14 129
e 14 136
e 14 141
e 14 144
e 15 16
e 15 22
e 15 23
e 15 26
e 15 27
e 15 28
e 15 30
e 15 33
e 15 37
e 15 40
e 15 44
e 15 46
e 15 57
e 15 67
e 15 76
e 15 78
e 15 81
e 15 90
e 15 94
e 15 95
e 15 98
e 15 100
e 15 102
e 15 110
e 15 111
e 15 128
e 15 131
e 15 135
e 15 142
e 15 148
e 16 20
e 16 25
e 16 32
e 16 38
e 16 42
e 16 44
e 16 47
e 16 50
e 16 54
e 16 61
e 16 66
e 16 69
e 16 75
e 16 79
e 16 96
e 16 97
e 16 101
e 16 105
e 16 110
e 16 116
e 16 120
e 16 121
e 16 126
e 16 127
e 16 139
e 16 143
e 17 22
e 17 31
e 17 37
e 17 39
e 17 40
e 17 47
e 17 49
e 17 52
e 17 56
e 17 61
e 17 63
e 17 65
e 17 66
e 17 70
e 17 78
e 17 89
e 17 113
e 17 123
e 17 127
e 17 131
e 17 134
e 17 144
e 17 147
e 17 148
e 18 21
e 18 27
e 18 28
e 18 35
e 18 39
e 18 48
e 18 50
e 18 53
e 18 59
e 18 62
e 18 65
e 18 67
e 18 70
e 18 74
e 18 81
e 18 83
e 18 84
e 18 90
e 18 95
e 18 104
e 18 113
e 18 116
e 18 119
e 18 121
e 18 129
e 19 21
e 19 35
e 19 37
e 19 39
e 19 51
e 19 68
e 19 75
e 19 82
e 19 89
e 19 91
e 19 93
e 19 98
e 19 99
e 19 102
e 19 105
e 19 109
e 19 110
e 19 111
e 19 121
e 19 122
e 19 125
e 19 129
e 19 132
e 19 133
e 19 135
e 19 138
e 19 144
e 20 21
e 20 24
e 20 27
e 20 37
e 20 44
e 20 47
e 20 50
e 20 53
e 20 67
e 20 68
e 20 69
e 20 72
e 20 80
e 20 83
e 20 86
e 20 88
e 20 90
e 20 93
e 20 98
e 20 99
e 20 103
e 20 113
e 20 116
e 20 124
e 20 127
e 20 129
e 20 136
e 20 138
e 20 139
e 20 142
e 20 144
e 20 146
e 20 147
e 20 149
e 21 22
e 21 24
e 21 33
e 21 35
e 21 38
e 21 44
e 21 45
e 21 46
e 21 47
e 21 50
e 21 60
e 21 64
e 21 81
e 21 82
e 21 92
e 21 94
e 21 95
e 21 100
e 21 106
e 21 116
e 21 119
e 21 129
e 21 132
e 21 141
e 21 145
e 21 149
e 22 23
e 22 25
e 22 29
e 22 36
e 22 38
e 22 39
e 22 42
e 22 43
e 22 53
e 22 56
e 22 59
e 22 60
e 22 65
e 22 69
e 22 72
e 22 74
e 22 80
e 22 81
e 22 87
e 22 94
e 22 97
e 22 99
e 22 102
e 22 117
e 22 125
e 22 126
e 22 132
e 22 134
e 22 140
e 22 150
e 23 30
e 23 36
e 23 37
e 23 38
e 23 42
e 23 50
e 23 58
e 23 60
e 23 70
e 23 73
e 23 74
e 23 76
e 23 79
e 23 82
e 23 86
e 23 92
e 23 94
e 23 108
e 23 109
e 23 110
e 23 112
e 23 118
e 23 122
e 23 123
e 23 127
e 23 138
e 23 142
e 23 143
e 23 147
e 23 149
e 24 28
e 24 29
e 24 38
e 24 45
e 24 51
e 24 54
e 24 63
e 24 65
e 24 66
e 24 67
e 24 75
e 24 77
e 24 80
e 24 84
e 24 85
e 24 86
e 24 90
e 24 96
e 24 106
e 24 124
e 24 127
e 24 129
e 24 132
e 24 135
e 24 137
e 24 141
e 25 27
e 25 31
e 25 45
e 25 48
e 25 53
e 25 66
e 25 67
e 25 72
e 25 84
e 25 88
e 25 96
e 25 102
e 25 103
e 25 125
e 25 130
e 25 134
e 25 139
e 25 140
e 26 29
e 26 32
e 26 40
e 26 50
e 26 53
e 26 54
e 26 58
e 26 67
e 26 69
e 26 75
e 26 77
e 26 79
e 26 80
e 26 84
e 26 88
e 26 96
e 26 97
e 26 100
e 26 101
e 26 103
e 26 113
e 26 115
e 26 116
e 26 119
e 26 121
e 26 124
e 26 130
e 26 134
e 26 146
e 27 28
e 27 29
e 27 35
e 27 43
e 27 46
e 27 70
e 27 78
e 27 80
e 27 82
e 27 92
e 27 93
e 27 94
e 27 96
e 27 105
e 27 111
e 27 115
e 27 119
e 27 121
e 27 133
e 27 136
e 27 137
e 27 139
e 27 142
e 27 143
e 27 146
e 28 30
e 28 38
e 28 39
e 28 43
e 28 44
e 28 52
e 28 60
e 28 65
e 28 70
e 28 74
e 28 75
e 28 76
e 28 82
e 28 85
e 28 91
e 28 108
e 28 110
e 28 113
e 28 118
e 28 119
e 28 121
e 28 123
e 28 135
e 28 137
e 28 143
e 28 144
e 28 150
e 29 35
e 29 42
e 29 45
e 29 48
e 29 53
e 29 60
e 29 65
e 29 68
e 29 79
e 29 81
e 29 85
e 29 94
e 29 95
e 29 97
e 29 99
e 29 102
e 29 109
e 29 122
e 29 129
e 29 132
e 29 133
e 30 40
e 30 42
e 30 44
e 30 47
e 30 56
e 30 61
e 30 69
e 30 70
e 30 76
e 30 79
e 30 81
e 30 84
e 30 89
e 30 90
e 30 95
e 30 100
e 30 101
e 30 108
e 30 110
e 30 114
e 30 122
e 30 130
e 30 138
e 30 140
e 30 145
e 31 35
e 31 36
e 31 37
e 31 47
e 31 50
e 31 56
e 31 62
e 31 65
e 31 70
e 31 74
e 31 97
e 31 118
e 31 131
e 31 132
e 31 133
e 31 140
e 31 141
e 31 142
e 31 146
e 32 33
e 32 37
e 32 39
e 32 44
e 32 45
e 32 50
e 32 51
e 32 55
e 32 58
e 32 59
e 32 61
e 32 62
e 32 70
e 32 72
e 32 80
e 32 82
e 32 85
e 32 87
e 32 96
e 32 97
e 32 99
e 32 104
e 32 113
e 32 116
e 32 124
e 32 128
e 32 138
e 32 143
e 32 145
e 32 146
e 33 37
e 33 40
e 33 42
e 33 44
e 33 53
e 33 55
e 33 56
e 33 67
e 33 72
e 33 76
e 33 77
e 33 84
e 33 87
e 33 91
e 33 93
e 33 95
e 33 109
e 33 114
e 33 116
e 33 119
e 33 123
e 33 128
e 33 130
e 33 141
e 33 150
e 34 38
e 34 40
e 34 41
e 34 45
e 34 48
e 34 53
e 34 57
e 34 61
e 34 62
e 34 68
e 34 75
e 34 77
e 34 78
e 34 81
e 34 87
e 34 106
e 34 111
e 34 115
e 34 116
e 34 119
e 34 120
e 34 123
e 34 139
e 34 140
e 34 146
e 35 36
e 35 37
e 35 39
e 35 40
e 35 42
e 35 44
e 35 45
e 35 46
e 35 48
e 35 76
e 35 78
e 35 81
e 35 99
e 35 103
e 35 106
e 35 107
e 35 110
e 35 127
e 35 133
e 35 134
e 35 136
e 35 138
e 35 139
e 35 143
e 35 147
e 35 149
e 36 38
e 36 39
e 36 42
e 36 44
e 36 49
e 36 51
e 36 52
e 36 55
e 36 62
e 36 71
e 36 73
e 36 75
e 36 78
e 36 91
e 36 92
e 36 94
e 36 98
e 36 109
e 36 113
e 36 118
e 36 124
e 36 125
e 36 126
e 36 127
e 36 128
e 36 134
e 36 147
e 37 38
e 37 49
e 37 58
e 37 59
e 37 61
e 37 69
e 37 72
e 37 75
e 37 77
e 37 79
e 37 81
e 37 90
e 37 93
e 37 97
e 37 98
e 37 105
e 37 106
e 37 125
e 37 130
e 37 133
e 37 139
e 37 141
e 37 146
e 38 47
e 38 52
e 38 68
e 38 69
e 38 77
e 38 79
e 38 83
e 38 85
e 38 86
e 38 87
e 38 98
e 38 100
e 38 101
e 38 105
e 38 107
e 38 111
e 38 119
e 38 124
e 38 140
e 38 149
e 39 42
e 39 56
e 39 57
e 39 75
e 39 89
e 39 98
e 39 99
e 39 108
e 39 115
e 39 118
e 39 133
e 39 136
e 39 142
e 40 42
e 40 43
e 40 57
e 40 61
e 40 71
e 40 72
e 40 80
e 40 88
e 40 95
e 40 100
e 40 101
e 40 113
e 40 117
e 40 120
e 40 121
e 40 128
e 40 134
e 40 139
e 40 142
e 40 143
e 40 147
e 41 42
e 41 47
e 41 51
e 41 52
e 41 58
e 41 69
e 41 70
e 41 72
e 41 77
e 41 78
e 41 79
e 41 82
e 41 83
e 41 86
e 41 95
e 41 99
e 41 100
e 41 103
e 41 105
e 41 106
e 41 117
e 41 126
e 41 131
e 41 136
e 41 143
e 42 50
e 42 53
e 42 54
e 42 57
e 42 62
e 42 67
e 42 76
e 42 81
e 42 83
e 42 86
e 42 90
e 42 95
e 42 98
e 42 103
e 42 109
e 42 112
e 42 114
e 42 115
e 42 116
e 42 125
e 42 130
e 42 140
e 42 143
e 42 144
e 43 47
e 43 48
e 43 55
e 43 57
e 43 61
e 43 62
e 43 83
e 43 87
e 43 88
e 43 89
e 43 98
e 43 99
e 43 100
e 43 101
e 43 104
e 43 105
e 43 116
e 43 130
e 43 131
e 44 45
e 44 58
e 44 64
e 44 65
e 44 66
e 44 87
e 44 88
e 44 97
e 44 99
e 44 117
e 44 122
e 44 127
e 44 130
e 44 131
e 44 138
e 44 142
e 44 147
e 44 148
e 44 149
e 45 55
e 45 61
e 45 62
e 45 76
e 45 81
e 45 86
e 45 87
e 45 88
e 45 89
e 45 93
e 45 96
e 45 112
e 45 129
e 45 134
e 45 150
e 46 49
e 46 51
e 46 52
e 46 53
e 46 57
e 46 65
e 46 75
e 46 76
e 46 77
e 46 83
e 46 95
e 46 99
e 46 106
e 46 108
e 46 125
e 46 128
e 46 130
e 46 139
e 46 140
e 46 142
e 46 146
e 47 52
e 47 67
e 47 97
e 47 101
e 47 105
e 47 112
e 47 117
e 47 131
e 47 148
e 48 59
e 48 64
e 48 65
e 48 66
e 48 71
e 48 74
e 48 85
e 48 86
e 48 87
e 48 91
e 48 92
e 48 103
e 48 112
e 48 118
e 48 124
e 48 133
e 48 134
e 48 139
e 48 140
e 48 144
e 48 145
e 48 148
e 48 149
e 49 51
e 49 56
e 49 74
e 49 78
e 49 79
e 49 87
e 49 91
e 49 95
e 49 99
e 49 104
e 49 110
e 49 114
e 49 120
e 49 122
e 49 133
e 49 134
e 49 137
e 49 150
e 50 61
e 50 65
e 50 76
e 50 81
e 50 84
e 50 87
e 50 93
e 50 99
e 50 104
e 50 109
e 50 111
e 50 121
e 50 124
e 50 129
e 50 136
e 50 138
e 50 147
e 51 52
e 51 53
e 51 56
e 51 57
e 51 60
e 51 62
e 51 64
e 51 69
e 51 77
e 51 78
e 51 89
e 51 97
e 51 98
e 51 111
e 51 112
e 51 127
e 51 128
e 51 138
e 51 142
e 51 143
e 51 146
e 52 57
e 52 63
e 52 67
e 52 70
e 52 71
e 52 75
e 52 83
e 52 104
e 52 107
e 52 113
e 52 114
e 52 130
e 52 139
e 52 145
e 53 59
e 53 62
e 53 68
e 53 71
e 53 72
e 53 78
e 53 84
e 53 92
e 53 94
e 53 95
e 53 96
e 53 97
e 53 98
e 53 102
e 53 108
e 53 115
e 53 116
e 53 123
e 53 124
e 53 135
e 53 137
e 53 140
e 53 145
e 53 146
e 53 147
e 53 149
e 53 150
e 54 60
e 54 69
e 54 75
e 54 89
e 54 91
e 54 93
e 54 108
e 54 112
e 54 127
e 54 131
e 54 135
e 54 137
e 54 138
e 54 146
e 54 150
e 55 68
e 55 69
e 55 72
e 55 73
e 55 82
e 55 89
e 55 91
e 55 92
e 55 110
e 55 128
e 55 129
e 55 144
e 55 145
e 55 149
e 55 150
e 56 62
e 56 74
e 56 80
e 56 84
e 56 87
e 56 88
e 56 93
e 56 103
e 56 106
e 56 112
e 56 113
e 56 115
e 56 124
e 56 129
e 56 140
e 57 59
e 57 63
e 57 64
e 57 66
e 57 74
e 57 89
e 57 93
e 57 95
e 57 98
e 57 99
e 57 105
e 57 109
e 57 112
e 57 118
e 57 120
e 57 128
e 57 130
e 57 148
e 58 60
e 58 61
e 58 64
e 58 65
e 58 71
e 58 72
e 58 74
e 58 79
e 58 81
e 58 86
e 58 89
e 58 90
e 58 107
e 58 109
e 58 112
e 58 113
e 58 115
e 58 121
e 58 129
e 58 138
e 58 141
e 58 142
e 58 148
e 59 66
e 59 72
e 59 78
e 59 87
e 59 90
e 59 91
e 59 92
e 59 94
e 59 100
e 59 101
e 59 105
e 59 107
e 59 114
e 59 116
e 59 131
e 59 141
e 59 142
e 59 146
e 59 149
e 59 150
e 60 74
e 60 78
e 60 83
e 60 92
e 60 93
e 60 95
e 60 97
e 60 101
e 60 102
e 60 104
e 60 113
e 60 114
e 60 116
e 60 118
e 60 140
e 60 144
e 60 145
e 60 150
e 61 62
e 61 63
e 61 66
e 61 67
e 61 69
e 61 77
e 61 82
e 61 84
e 61 91
e 61 98
e 61 101
e 61 105
e 61 109
e 61 111
e 61 112
e 61 125
e 61 128
e 61 129
e 61 133
e 61 134
e 61 135
e 61 142
e 61 149
e 62 67
e 62 68
e 62 71
e 62 72
e 62 85
e 62 87
e 62 88
e 62 97
e 62 104
e 62 108
e 62 111
e 62 114
e 62 124
e 62 129
e 62 133
e 62 135
e 62 141
e 62 142
e 62 150
e 63 65
e 63 67
e 63 76
e 63 77
e 63 80
e 63 86
e 63 93
e 63 103
e 63 110
e 63 118
e 63 120
e 63 140
e 63 142
e 64 66
e 64 71
e 64 77
e 64 81
e 64 88
e 64 96
e 64 97
e 64 99
e 64 105
e 64 107
e 64 113
e 64 114
e 64 117
e 64 118
e 64 121
e 64 125
e 64 135
e 64 138
e 65 85
e 65 99
e 65 105
e 65 109
e 65 122
e 65 125
e 65 128
e 65 135
e 65 143
e 65 145
e 66 68
e 66 69
e 66 73
e 66 74
e 66 78
e 66 80
e 66 82
e 66 83
e 66 86
e 66 89
e 66 91
e 66 94
e 66 97
e 66 101
e 66 107
e 66 108
e 66 110
e 66 112
e 66 116
e 66 117
e 66 118
e 66 127
e 66 134
e 66 135
e 66 139
e 66 140
e 66 144
e 66 147
e 66 149
e 67 69
e 67 70
e 67 74
e 67 77
e 67 82
e 67 88
e 67 92
e 67 99
e 67 102
e 67 103
e 67 108
e 67 109
e 67 113
e 67 118
e 67 121
e 67 133
e 67 145
e 67 149
e 68 73
e 68 75
e 68 78
e 68 80
e 68 84
e 68 86
e 68 90
e 68 92
e 68 96
e 68 101
e 68 102
e 68 103
e 68 107
e 68 110
e 68 112
e 68 117
e 68 119
e 68 121
e 68 125
e 68 131
e 68 141
e 68 146
e 69 74
e 69 75
e 69 77
e 69 79
e 69 81
e 69 85
e 69 100
e 69 101
e 69 106
e 69 108
e 69 113
e 69 120
e 69 122
e 69 127
e 69 130
e 69 136
e 69 139
e 69 141
e 69 147
e 70 78
e 70 95
e 70 99
e 70 107
e 70 110
e 70 123
e 70 124
e 70 128
e 70 132
e 70 134
e 70 137
e 70 138
e 70 141
e 70 143
e 70 146
e 71 73
e 71 76
e 71 86
e 71 87
e 71 89
e 71 91
e 71 94
e 71 108
e 71 115
e 71 124
e 71 125
e 71 134
e 71 145
e 71 147
e 71 148
e 72 74
e 72 76
e 72 79
e 72 96
e 72 103
e 72 104
e 72 105
e 72 115
e 72 135
e 72 136
e 72 139
e 72 144
e 73 75
e 73 77
e 73 80
e 73 85
e 73 86
e 73 91
e 73 94
e 73 98
e 73 107
e 73 117
e 73 126
e 73 128
e 73 142
e 73 147
e 73 150
e 74 78
e 74 81
e 74 84
e 74 85
e 74 86
e 74 87
e 74 88
e 74 90
e 74 100
e 74 109
e 74 123
e 74 128
e 74 144
e 74 147
e 75 77
e 75 82
e 75 86
e 75 91
e 75 95
e 75 100
e 75 106
e 75 109
e 75 117
e 75 121
e 75 122
e 75 124
e 76 78
e 76 79
e 76 83
e 76 89
e 76 93
e 76 96
e 76 99
e 76 107
e 76 109
e 76 118
e 76 120
e 76 132
e 76 138
e 76 140
e 76 149
e 77 78
e 77 80
e 77 81
e 77 88
e 77 89
e 77 90
e 77 107
e 77 109
e 77 116
e 77 117
e 77 128
e 77 132
e 77 137
e 77 138
e 77 143
e 77 144
e 77 147
e 78 84
e 78 90
e 78 91
e 78 95
e 78 100
e 78 104
e 78 106
e 78 107
e 78 112
e 78 114
e 78 115
e 78 116
e 78 119
e 78 126
e 78 133
e 78 138
e 78 143
e 79 81
e 79 85
e 79 87
e 79 89
e 79 90
e 79 95
e 79 107
e 79 112
e 79 119
e 79 121
e 79 147
e 79 150
e 80 84
e 80 85
e 80 86
e 80 89
e 80 106
e 80 115
e 80 118
e 80 119
e 80 122
e 80 128
e 80 132
e 80 135
e 80 148
e 80 149
e 80 150
e 81 88
e 81 89
e 81 91
e 81 95
e 81 96
e 81 99
e 81 100
e 81 104
e 81 115
e 81 117
e 81 118
e 81 120
e 81 124
e 81 127
e 81 129
e 81 133
e 81 138
e 81 144
e 81 147
e 81 150
e 82 83
e 82 85
e 82 92
e 82 96
e 82 98
e 82 111
e 82 112
e 82 118
e 82 119
e 82 120
e 82 124
e 82 132
e 82 142
e 82 145
e 82 147
e 82 149
e 82 150
e 83 85
e 83 107
e 83 109
e 83 110
e 83 113
e 83 119
e 83 120
e 83 133
e 83 141
e 83 143
e 83 150
e 84 94
e 84 95
e 84 97
e 84 98
e 84 100
e 84 101
e 84 105
e 84 109
e 84 114
e 84 117
e 84 138
e 84 147
e 84 148
e 84 150
e 85 89
e 85 95
e 85 97
e 85 99
e 85 101
e 85 105
e 85 106
e 85 114
e 85 115
e 85 125
e 85 127
e 85 133
e 85 146
e 85 147
e 85 149
e 86 88
e 86 90
e 86 96
e 86 101
e 86 104
e 86 107
e 86 110
e 86 113
e 86 114
e 86 117
e 86 137
e 86 140
e 86 145
e 87 91
e 87 100
e 87 111
e 87 116
e 87 123
e 87 126
e 87 133
e 87 140
e 87 142
e 87 145
e 88 101
e 88 102
e 88 110
e 88 113
e 88 116
e 88 131
e 88 135
e 88 144
e 88 145
e 89 91
e 89 94
e 89 95
e 89 110
e 89 113
e 89 117
e 89 119
e 89 122
e 89 126
e 89 129
e 89 139
e 89 141
e 89 144
e 90 97
e 90 100
e 90 107
e 90 110
e 90 112
e 90 114
e 90 119
e 90 120
e 90 122
e 90 129
e 90 135
e 90 141
e 90 142
e 90 143
e 90 148
e 91 98
e 91 99
e 91 105
e 91 106
e 91 108
e 91 114
e 91 117
e 91 128
e 91 134
e 91 147
e 92 93
e 92 99
e 92 100
e 92 105
e 92 107
e 92 108
e 92 110
e 92 111
e 92 115
e 92 122
e 92 124
e 92 130
e 92 135
e 92 142
e 92 143
e 92 146
e 92 147
e 92 150
e 93 95
e 93 109
e 93 111
e 93 121
e 93 142
e 94 102
e 94 104
e 94 108
e 94 129
e 94 132
e 94 147
e 94 149
e 95 98
e 95 101
e 95 135
e 95 137
e 95 143
e 95 146
e 95 148
e 96 102
e 96 107
e 96 110
e 96 111
e 96 116
e 96 118
e 96 127
e 96 131
e 96 135
e 96 137
e 96 147
e 97 102
e 97 111
e 97 114
e 97 122
e 97 125
e 97 129
e 97 134
e 97 136
e 97 146
e 98 100
e 98 109
e 98 124
e 98 128
e 98 138
e 98 140
e 98 143
e 98 144
e 99 109
e 99 110
e 99 127
e 99 128
e 99 130
e 99 134
e 99 136
e 99 141
e 99 148
e 100 115
e 100 116
e 100 118
e 100 120
e 100 121
e 100 141
e 101 103
e 101 108
e 101 113
e 101 132
e 101 138
e 101 142
e 101 145
e 101 148
e 101 149
e 102 105
e 102 111
e 102 127
e 102 129
e 103 105
e 103 108
e 103 118
e 103 124
e 103 132
e 104 105
e 104 107
e 104 122
e 104 123
e 104 127
e 104 149
e 105 109
e 105 121
e 105 128
e 105 133
e 105 136
e 105 140
e 106 113
e 106 119
e 106 125
e 106 138
e 106 139
e 107 108
e 107 112
e 107 115
e 107 127
e 107 129
e 107 135
e 107 143
e 107 148
e 107 149
e 108 113
e 108 114
e 108 118
e 108 120
e 108 122
e 108 124
e 108 126
e 108 131
e 108 133
e 108 134
e 108 135
e 108 137
e 109 110
e 109 113
e 109 121
e 109 124
e 109 126
e 109 130
e 109 131
e 109 134
e 109 137
e 109 139
e 109 142
e 109 147
e 109 148
e 110 115
e 110 116
e 110 119
e 110 121
e 110 124
e 110 126
e 110 128
e 110 132
e 110 133
e 110 136
e 110 137
e 111 117
e 111 118
e 111 124
e 111 142
e 112 116
e 112 124
e 112 144
e 112 146
e 113 118
e 113 120
e 113 130
e 113 132
e 113 134
e 113 142
e 113 144
e 113 150
e 114 116
e 114 118
e 114 119
e 114 128
e 114 141
e 114 144
e 115 126
e 115 130
e 115 139
e 115 142
e 115 143
e 115 144
e 115 146
e 116 124
e 116 127
e 116 131
e 116 136
e 116 137
e 116 142
e 116 144
e 116 145
e 117 119
e 117 121
e 117 133
e 117 136
e 117 144
e 118 119
e 118 120
e 118 122
e 118 124
e 118 126
e 118 128
e 118 129
e 118 139
e 118 144
e 118 150
e 119 122
e 119 123
e 119 125
e 119 126
e 119 135
e 119 138
e 119 140
e 119 149
e 119 150
e 120 129
e 120 140
e 121 122
e 121 123
e 121 127
e 121 131
e 121 134
e 121 142
e 121 149
e 121 150
e 122 123
e 122 129
e 122 136
e 122 137
e 122 146
e 123 125
e 123 129
e 123 130
e 123 140
e 123 144
e 123 148
e 124 125
e 124 131
e 124 133
e 124 138
e 124 141
e 124 142
e 125 134
e 125 145
e 125 146
e 125 148
e 126 131
e 126 133
e 126 136
e 126 139
e 126 147
e 126 148
e 127 128
e 127 144
e 128 135
e 128 142
e 128 143
e 128 149
e 129 134
e 129 137
e 129 140
e 129 147
e 130 131
e 130 141
e 130 145
e 131 132
e 131 134
e 131 140
e 131 142
e 131 148
e 132 140
e 132 150
e 133 144
e 133 147
e 134 138
e 134 142
e 134 144
e 135 138
e 135 141
e 135 142
e 135 143
e 135 145
e 135 150
e 136 137
e 136 148
e 136 150
e 138 143
e 138 144
e 138 145
e 139 140
e 139 146
e 139 149
e 140 145
e 140 150
e 141 146
e 141 150
e 143 149
e 143 150
e 144 148
e 144 150
e 146 147
e 146 148
e 146 149
e 146 150
